1539.4
0 9 72 7 8 27 5 1 3 6 2 4 0
0 11 14 19 13 20 21 23 16 18 12 17 0
0 28 22 30 29 15 35 31 25 32 24 26 0
0 37 36 42 41 43 33 51 44 40 39 38 34 0
0 55 50 49 56 48 47 71 57 54 46 53 45 0
0 65 66 59 60 61 64 62 63 68 67 58 0
0 70 69 74 73 52 10 75 0
